\* row_knapsack_problem *\
Minimize
knapsack: 5 row_0 + row_1 + 6 row_2 + 5 row_3 + 2 row_5 + 5 row_8 + 3 row_9
Subject To
sensitivity: row_0 + 5 row_1 + row_3 + 6 row_4 + 4 row_5 + 6 row_6 + 6 row_7
 + row_8 + 3 row_9 >= 6.4
Bounds
 row_0 <= 1
 row_1 <= 1
 row_2 <= 1
 row_3 <= 1
 row_4 <= 1
 row_5 <= 1
 row_6 <= 1
 row_7 <= 1
 row_8 <= 1
 row_9 <= 1
End
